25 40
1 2 5
1 6 1
2 3 1
2 7 4
3 4 4
3 8 5
4 5 5
4 9 2
5 10 2
6 7 3
6 11 1
7 8 3
7 12 1
8 9 4
8 13 1
9 10 2
9 14 2
10 15 2
11 12 2
11 16 4
12 13 2
12 17 3
13 14 5
13 18 2
14 15 5
14 19 5
15 20 5
16 17 4
16 21 1
17 18 2
17 22 5
18 19 2
18 23 1
19 20 5
19 24 3
20 25 4
21 22 1
22 23 1
23 24 3
24 25 1
